100
32
1
16
3
23
18
32
32
21
6
32
4
10
26
9
19
9
21
24
12
27
4
13
9
14
11
25
11
13
3
10
9
12
25
4
10
23
5
9
15
13
4
13
14
15
17
11
9
15
2
15
1
5
21
14
2
1
20
18
1
20
3
21
6
19
1
1
2
4
14
3
10
1
5
6
10
22
8
22
1
20
3
16
1
5
18
1
4
24
21
1
1
6
20
1
2
4
3
17
9
3